% File represents an instance of a Composite Structure problem to be solved by a CP framework
% Created on 2025-03-26 10:41:41.988
T = 56;
n = 25;
m = 40;
edges = [(2, 1),
(6, 7),
(11, 12),
(16, 17),
(21, 22),
(3, 2),
(8, 7),
(13, 12),
(17, 18),
(23, 22),
(3, 4),
(8, 9),
(14, 13),
(19, 18),
(24, 23),
(4, 5),
(9, 10),
(15, 14),
(20, 19),
(24, 25),
(6, 1),
(6, 11),
(16, 11),
(16, 21),
(2, 7),
(7, 12),
(17, 12),
(17, 22),
(3, 8),
(8, 13),
(18, 13),
(23, 18),
(9, 4),
(9, 14),
(19, 14),
(24, 19),
(10, 5),
(15, 10),
(20, 15),
(20, 25)];
counts = [|4, 14, 4, 22,
|4, 20, 4, 22,
|4, 20, 4, 24,
|4, 18, 4, 20,
|2, 18, 2, 20,
|4, 18, 4, 24,
|4, 16, 4, 20,
|4, 20, 4, 22,
|4, 20, 4, 20,
|2, 20, 2, 20,
|4, 16, 4, 24,
|4, 16, 4, 18,
|4, 18, 4, 18,
|4, 20, 4, 18,
|4, 22, 4, 20,
|6, 18, 6, 24,
|4, 18, 4, 22,
|4, 18, 4, 20,
|4, 22, 4, 20,
|6, 22, 6, 22,
|6, 18, 6, 22,
|4, 16, 4, 22,
|4, 20, 4, 22,
|6, 22, 6, 22,
|6, 22, 6, 18|];
